p cnf 28 75
a 20 4 0
e 1 2 3 5 6 7 8 9 10 11 12 13 14 15 16 17 18 19 21 22 23 24 25 26 27 28 0
3 -4 -5 0
-3 4 -5 0
3 4 5 0
-3 -4 5 0
6 2 0
6 -5 0
-2 5 -6 0
-1 6 -7 0
1 -6 -7 0
-1 -6 7 0
1 6 7 0
1 7 -8 0
-1 -7 -8 0
1 -7 8 0
-1 7 8 0
8 9 -10 0
-8 -9 -10 0
8 -9 10 0
-8 9 10 0
11 -5 0
11 -8 0
5 8 -11 0
-12 10 0
-12 -11 0
-10 11 12 0
-13 4 -14 0
13 -4 -14 0
-13 -4 14 0
13 4 14 0
7 14 -15 0
-7 -14 -15 0
7 -14 15 0
-7 14 15 0
-12 -15 -16 0
12 15 -16 0
-12 15 16 0
12 -15 16 0
-18 17 0
-18 1 0
-17 -1 18 0
-19 8 0
-19 3 0
-8 -3 19 0
20 -18 0
20 19 0
18 -19 -20 0
21 1 0
21 -13 0
-1 13 -21 0
22 -20 0
22 21 0
20 -21 -22 0
-23 16 0
-23 -22 0
-16 22 23 0
-25 24 0
-25 1 0
-24 -1 25 0
26 -2 0
26 4 0
2 -4 -26 0
27 -25 0
27 -26 0
25 26 -27 0
28 -23 0
28 -27 0
23 27 -28 0
6 -4 14 23 -24 8 11 16 0
4 17 -5 0
-18 -13 -24 -4 2 -20 0
-28 -9 -12 -20 -11 26 0
-13 -5 1 25 -23 0
2 26 7 27 0
24 -23 -9 0
28 0
